<number of tasks>
100

<cycle time>
1000

<order strength>
0.898


<task times>
1 82
2 292
3 133
4 98
5 113
6 75
7 22
8 103
9 124
10 259
11 395
12 197
13 146
14 160
15 165
16 152
17 107
18 173
19 199
20 282
21 25
22 131
23 120
24 100
25 141
26 123
27 176
28 37
29 35
30 115
31 297
32 80
33 159
34 65
35 90
36 58
37 221
38 177
39 73
40 117
41 187
42 180
43 92
44 29
45 282
46 66
47 113
48 195
49 163
50 124
51 181
52 128
53 85
54 111
55 189
56 123
57 86
58 185
59 104
60 43
61 119
62 25
63 73
64 50
65 344
66 55
67 225
68 92
69 51
70 28
71 68
72 128
73 201
74 87
75 324
76 105
77 160
78 154
79 105
80 34
81 245
82 28
83 92
84 65
85 132
86 156
87 52
88 67
89 46
90 161
91 209
92 72
93 166
94 80
95 285
96 189
97 113
98 84
99 119
100 122

<precedence relations>
1,7
1,8
2,5
2,6
2,7
2,8
3,5
3,6
3,7
3,8
4,5
4,6
4,7
4,8
5,9
5,10
5,11
6,9
6,10
6,11
7,9
7,10
7,11
8,9
8,10
8,11
9,12
9,13
10,12
10,13
11,12
11,13
12,14
12,15
12,16
12,17
12,18
13,14
13,15
13,16
13,17
13,18
14,19
15,33
15,34
15,35
16,19
16,20
16,21
16,22
17,21
17,22
18,19
18,22
19,23
19,24
20,23
20,24
21,23
21,24
22,23
22,24
23,25
23,26
23,28
23,31
24,25
24,26
24,27
25,30
26,29
27,28
27,29
27,31
29,32
29,34
29,35
30,32
30,33
30,34
30,35
31,32
31,33
31,34
31,35
32,36
32,37
33,41
33,43
34,36
34,37
35,36
35,37
36,38
36,39
37,39
38,40
38,41
39,40
39,41
40,42
40,43
40,44
40,45
40,46
41,42
41,44
41,45
41,46
42,47
42,48
42,51
43,47
43,48
44,47
44,48
44,49
44,50
44,52
45,47
45,50
45,51
46,47
46,66
47,64
48,53
48,54
49,64
50,54
50,55
50,62
51,53
51,54
52,53
53,55
53,56
53,57
53,58
54,57
55,59
55,60
55,61
55,63
56,59
56,60
56,61
56,62
57,59
57,60
57,63
58,59
58,60
58,61
58,63
59,64
59,65
59,66
59,67
60,67
61,64
61,65
61,66
62,79
63,64
63,65
63,69
64,68
64,70
65,87
66,69
66,72
66,73
66,74
67,68
67,70
67,71
68,74
69,75
70,72
70,73
71,80
72,75
72,76
73,75
73,76
73,77
73,78
74,75
74,76
74,78
75,79
75,80
75,81
75,82
76,79
77,85
77,86
78,80
78,81
79,84
79,85
80,83
82,83
83,84
83,85
84,86
84,87
84,88
85,89
85,91
86,89
86,90
87,91
89,95
90,94
91,92
91,93
91,96
92,97
93,99
93,100
95,98

<end>
